 
$molecule
-1,2
C -0.0319098818 0.0254981606 -0.8223044508    
C -0.0191895433 0.0166169919 0.6941684721    
C 1.3550023494 0.0259801841 1.3394737134    
Br 0.678925455 -1.680123685 -1.5377128578    
Br -1.0174426801 1.663211118 1.2411289221    
H -1.0389934407 0.1026000644 -1.2233924498    
H 0.6006756128 0.8103297534 -1.2342795942    
H -0.6394159506 -0.7935906293 1.0760944228    
H 1.2722266311 0.0667701546 2.4270235574    
H 1.8895897362 -0.8885959631 1.0644588095    
H 1.9406027436 0.885854445 1.0025065971    
       
$end

$comment
negative
$end

$xc_functional
   X HF 1.0
   X BNL 1.0
   C LYP 1.0
$end

$rem
   EXCHANGE GENERAL
   CORRELATION none
   SEPARATE_JK TRUE
   OMEGA 600 
   DERSCREEN FALSE
   IDERIV 0
   UNRESTRICTED TRUE
   JOBTYPE sp
   BASIS 6-31G*
   SCF_PRINT 1
   PDB_PRINT 2
   INCDFT false
   VARTHRESH 0
   MAX_SCF_CYCLES 1000
   MEM_STATIC 256
   MEM_TOTAL 3000
   THRESH 140
   ITHRSH 14
   XC_GRID 75000302
   SCF_CONVERGENCE 6
$end

@@@
 
$molecule
0,1
C -0.0319098818 0.0254981606 -0.8223044508    
C -0.0191895433 0.0166169919 0.6941684721    
C 1.3550023494 0.0259801841 1.3394737134    
Br 0.678925455 -1.680123685 -1.5377128578    
Br -1.0174426801 1.663211118 1.2411289221    
H -1.0389934407 0.1026000644 -1.2233924498    
H 0.6006756128 0.8103297534 -1.2342795942    
H -0.6394159506 -0.7935906293 1.0760944228    
H 1.2722266311 0.0667701546 2.4270235574    
H 1.8895897362 -0.8885959631 1.0644588095    
H 1.9406027436 0.885854445 1.0025065971    
       
$end

$comment
neutral
$end

$xc_functional
   X HF 1.0
   X BNL 1.0
   C LYP 1.0
$end

$rem
   EXCHANGE GENERAL
   CORRELATION none
   SEPARATE_JK TRUE
   OMEGA 600 
   DERSCREEN FALSE
   IDERIV 0
   UNRESTRICTED TRUE
   JOBTYPE sp
   BASIS 6-31G*
   SCF_PRINT 1
   PDB_PRINT 2
   INCDFT false
   VARTHRESH 0
   MAX_SCF_CYCLES 1000
   MEM_STATIC 256
   MEM_TOTAL 3000
   THRESH 140
   ITHRSH 14
   XC_GRID 75000302
   SCF_CONVERGENCE 6
$end

@@@
 
$molecule
1,2
C -0.0319098818 0.0254981606 -0.8223044508    
C -0.0191895433 0.0166169919 0.6941684721    
C 1.3550023494 0.0259801841 1.3394737134    
Br 0.678925455 -1.680123685 -1.5377128578    
Br -1.0174426801 1.663211118 1.2411289221    
H -1.0389934407 0.1026000644 -1.2233924498    
H 0.6006756128 0.8103297534 -1.2342795942    
H -0.6394159506 -0.7935906293 1.0760944228    
H 1.2722266311 0.0667701546 2.4270235574    
H 1.8895897362 -0.8885959631 1.0644588095    
H 1.9406027436 0.885854445 1.0025065971    
       
$end

$comment
positive
$end

$xc_functional
   X HF 1.0
   X BNL 1.0
   C LYP 1.0
$end

$rem
   EXCHANGE GENERAL  ! bnl
   CORRELATION none  ! bnl
   SEPARATE_JK TRUE  ! bnl
   OMEGA 600      ! bnl
   DERSCREEN FALSE   ! bnl
   IDERIV 0          ! bnl
   UNRESTRICTED TRUE ! bnl
   JOBTYPE sp
   BASIS 6-31G*
   SCF_PRINT 1
   PDB_PRINT 2
   INCDFT false
   VARTHRESH 0
   MAX_SCF_CYCLES 1000
   MEM_STATIC 256
   MEM_TOTAL 3000
   THRESH 140
   ITHRSH 14
   XC_GRID 75000302
   SCF_CONVERGENCE 6
$end

