 
$molecule
-1,2
Br 0.689890578 0.0434542028 0.2324348166    
C -0.968459117 -0.47395723 -0.5422977974    
C -2.06108587 0.2693471976 -0.4856150648    
H -0.9031775335 -1.4388434275 -1.0271651085    
H -2.0903610201 1.232525474 0.0093040852    
H -2.9753616852 -0.0869188301 -0.9498806142    
       
$end

$comment
negative
$end

$xc_functional
   X HF 1.0
   X BNL 1.0
   C LYP 1.0
$end

$rem
   EXCHANGE GENERAL
   CORRELATION none
   SEPARATE_JK TRUE
   OMEGA 500 
   DERSCREEN FALSE
   IDERIV 0
   UNRESTRICTED TRUE
   JOBTYPE sp
   BASIS 6-31G*
   SCF_PRINT 1
   PDB_PRINT 2
   INCDFT false
   VARTHRESH 0
   MAX_SCF_CYCLES 1000
   MEM_STATIC 256
   MEM_TOTAL 3000
   THRESH 140
   ITHRSH 14
   XC_GRID 75000302
   SCF_CONVERGENCE 6
$end

@@@
 
$molecule
0,1
Br 0.689890578 0.0434542028 0.2324348166    
C -0.968459117 -0.47395723 -0.5422977974    
C -2.06108587 0.2693471976 -0.4856150648    
H -0.9031775335 -1.4388434275 -1.0271651085    
H -2.0903610201 1.232525474 0.0093040852    
H -2.9753616852 -0.0869188301 -0.9498806142    
       
$end

$comment
neutral
$end

$xc_functional
   X HF 1.0
   X BNL 1.0
   C LYP 1.0
$end

$rem
   EXCHANGE GENERAL
   CORRELATION none
   SEPARATE_JK TRUE
   OMEGA 500 
   DERSCREEN FALSE
   IDERIV 0
   UNRESTRICTED TRUE
   JOBTYPE sp
   BASIS 6-31G*
   SCF_PRINT 1
   PDB_PRINT 2
   INCDFT false
   VARTHRESH 0
   MAX_SCF_CYCLES 1000
   MEM_STATIC 256
   MEM_TOTAL 3000
   THRESH 140
   ITHRSH 14
   XC_GRID 75000302
   SCF_CONVERGENCE 6
$end

@@@
 
$molecule
1,2
Br 0.689890578 0.0434542028 0.2324348166    
C -0.968459117 -0.47395723 -0.5422977974    
C -2.06108587 0.2693471976 -0.4856150648    
H -0.9031775335 -1.4388434275 -1.0271651085    
H -2.0903610201 1.232525474 0.0093040852    
H -2.9753616852 -0.0869188301 -0.9498806142    
       
$end

$comment
positive
$end

$xc_functional
   X HF 1.0
   X BNL 1.0
   C LYP 1.0
$end

$rem
   EXCHANGE GENERAL  ! bnl
   CORRELATION none  ! bnl
   SEPARATE_JK TRUE  ! bnl
   OMEGA 500      ! bnl
   DERSCREEN FALSE   ! bnl
   IDERIV 0          ! bnl
   UNRESTRICTED TRUE ! bnl
   JOBTYPE sp
   BASIS 6-31G*
   SCF_PRINT 1
   PDB_PRINT 2
   INCDFT false
   VARTHRESH 0
   MAX_SCF_CYCLES 1000
   MEM_STATIC 256
   MEM_TOTAL 3000
   THRESH 140
   ITHRSH 14
   XC_GRID 75000302
   SCF_CONVERGENCE 6
$end

