 
$molecule
-1,2
F 0. 0. -1.4933868566    
Cl 0. 0. 0.1515743366    
O -1.3883371993 0.0000000012 0.4526549161    
O 0.6941686007 1.202335283 0.4526549161    
O 0.6941685986 -1.2023352842 0.4526549161    
       
$end

$comment
negative
$end

$xc_functional
   X HF 1.0
   X BNL 1.0
   C LYP 1.0
$end

$rem
   EXCHANGE GENERAL
   CORRELATION none
   SEPARATE_JK TRUE
   OMEGA xOMEGA 
   DERSCREEN FALSE
   IDERIV 0
   UNRESTRICTED TRUE
   JOBTYPE sp
   BASIS 6-31G*
   SCF_PRINT 1
   PDB_PRINT 2
   INCDFT false
   VARTHRESH 0
   MAX_SCF_CYCLES 1000
   MEM_STATIC 256
   MEM_TOTAL 3000
   THRESH 140
   ITHRSH 14
   XC_GRID 75000302
   SCF_CONVERGENCE 6
$end

@@@
 
$molecule
0,1
F 0. 0. -1.4933868566    
Cl 0. 0. 0.1515743366    
O -1.3883371993 0.0000000012 0.4526549161    
O 0.6941686007 1.202335283 0.4526549161    
O 0.6941685986 -1.2023352842 0.4526549161    
       
$end

$comment
neutral
$end

$xc_functional
   X HF 1.0
   X BNL 1.0
   C LYP 1.0
$end

$rem
   EXCHANGE GENERAL
   CORRELATION none
   SEPARATE_JK TRUE
   OMEGA xOMEGA 
   DERSCREEN FALSE
   IDERIV 0
   UNRESTRICTED TRUE
   JOBTYPE sp
   BASIS 6-31G*
   SCF_PRINT 1
   PDB_PRINT 2
   INCDFT false
   VARTHRESH 0
   MAX_SCF_CYCLES 1000
   MEM_STATIC 256
   MEM_TOTAL 3000
   THRESH 140
   ITHRSH 14
   XC_GRID 75000302
   SCF_CONVERGENCE 6
$end

@@@
 
$molecule
1,2
F 0. 0. -1.4933868566    
Cl 0. 0. 0.1515743366    
O -1.3883371993 0.0000000012 0.4526549161    
O 0.6941686007 1.202335283 0.4526549161    
O 0.6941685986 -1.2023352842 0.4526549161    
       
$end

$comment
positive
$end

$xc_functional
   X HF 1.0
   X BNL 1.0
   C LYP 1.0
$end

$rem
   EXCHANGE GENERAL  ! bnl
   CORRELATION none  ! bnl
   SEPARATE_JK TRUE  ! bnl
   OMEGA xOMEGA      ! bnl
   DERSCREEN FALSE   ! bnl
   IDERIV 0          ! bnl
   UNRESTRICTED TRUE ! bnl
   JOBTYPE sp
   BASIS 6-31G*
   SCF_PRINT 1
   PDB_PRINT 2
   INCDFT false
   VARTHRESH 0
   MAX_SCF_CYCLES 1000
   MEM_STATIC 256
   MEM_TOTAL 3000
   THRESH 140
   ITHRSH 14
   XC_GRID 75000302
   SCF_CONVERGENCE 6
$end

