 
$molecule
-1,2
C -1.2136848728 0. -1.742216327    
C -1.2179336464 0. -0.2260209105    
Br 0.6182627416 0. 0.5087321877    
H -2.2490687553 0. -2.1044076739    
H -0.71219935 0.8864254618 -2.1379382773    
H -0.71219935 -0.8864254618 -2.1379382773    
H -1.6880086927 0.8891126385 0.1920405416    
H -1.6880086927 -0.8891126385 0.1920405416    
       
$end

$comment
negative
$end

$xc_functional
   X HF 1.0
   X BNL 1.0
   C LYP 1.0
$end

$rem
   EXCHANGE GENERAL
   CORRELATION none
   SEPARATE_JK TRUE
   OMEGA xOMEGA 
   DERSCREEN FALSE
   IDERIV 0
   UNRESTRICTED TRUE
   JOBTYPE sp
   BASIS 6-31G*
   SCF_PRINT 1
   PDB_PRINT 2
   INCDFT false
   VARTHRESH 0
   MAX_SCF_CYCLES 1000
   MEM_STATIC 256
   MEM_TOTAL 3000
   THRESH 140
   ITHRSH 14
   XC_GRID 75000302
   SCF_CONVERGENCE 6
$end

@@@
 
$molecule
0,1
C -1.2136848728 0. -1.742216327    
C -1.2179336464 0. -0.2260209105    
Br 0.6182627416 0. 0.5087321877    
H -2.2490687553 0. -2.1044076739    
H -0.71219935 0.8864254618 -2.1379382773    
H -0.71219935 -0.8864254618 -2.1379382773    
H -1.6880086927 0.8891126385 0.1920405416    
H -1.6880086927 -0.8891126385 0.1920405416    
       
$end

$comment
neutral
$end

$xc_functional
   X HF 1.0
   X BNL 1.0
   C LYP 1.0
$end

$rem
   EXCHANGE GENERAL
   CORRELATION none
   SEPARATE_JK TRUE
   OMEGA xOMEGA 
   DERSCREEN FALSE
   IDERIV 0
   UNRESTRICTED TRUE
   JOBTYPE sp
   BASIS 6-31G*
   SCF_PRINT 1
   PDB_PRINT 2
   INCDFT false
   VARTHRESH 0
   MAX_SCF_CYCLES 1000
   MEM_STATIC 256
   MEM_TOTAL 3000
   THRESH 140
   ITHRSH 14
   XC_GRID 75000302
   SCF_CONVERGENCE 6
$end

@@@
 
$molecule
1,2
C -1.2136848728 0. -1.742216327    
C -1.2179336464 0. -0.2260209105    
Br 0.6182627416 0. 0.5087321877    
H -2.2490687553 0. -2.1044076739    
H -0.71219935 0.8864254618 -2.1379382773    
H -0.71219935 -0.8864254618 -2.1379382773    
H -1.6880086927 0.8891126385 0.1920405416    
H -1.6880086927 -0.8891126385 0.1920405416    
       
$end

$comment
positive
$end

$xc_functional
   X HF 1.0
   X BNL 1.0
   C LYP 1.0
$end

$rem
   EXCHANGE GENERAL  ! bnl
   CORRELATION none  ! bnl
   SEPARATE_JK TRUE  ! bnl
   OMEGA xOMEGA      ! bnl
   DERSCREEN FALSE   ! bnl
   IDERIV 0          ! bnl
   UNRESTRICTED TRUE ! bnl
   JOBTYPE sp
   BASIS 6-31G*
   SCF_PRINT 1
   PDB_PRINT 2
   INCDFT false
   VARTHRESH 0
   MAX_SCF_CYCLES 1000
   MEM_STATIC 256
   MEM_TOTAL 3000
   THRESH 140
   ITHRSH 14
   XC_GRID 75000302
   SCF_CONVERGENCE 6
$end

