 
$molecule
-1,2
C 2.1773519773 0. 0.    
C -0.1612071544 0.7066826427 0.2856983838    
C -0.1612071544 -0.7066826427 -0.2856983838    
C 1.2464885101 1.2430373919 0.0174089356    
C 1.2464885101 -1.2430373919 -0.0174089356    
Br -0.5048899915 0.5566653338 2.2553944501    
Br -0.5048899915 -0.5566653338 -2.2553944501    
H 2.8262936787 -0.0222200635 0.8778347352    
H 2.8262936787 0.0222200635 -0.8778347352    
H 1.5436479125 1.9989218739 0.7445539883    
H 1.5436479125 -1.9989218739 -0.7445539883    
H 1.2316064346 1.7244746751 -0.9657731047    
H 1.2316064346 -1.7244746751 0.9657731047    
H -0.9741423885 1.3356478982 -0.0641840953    
H -0.9741423885 -1.3356478982 0.0641840953    
       
$end

$comment
negative
$end

$xc_functional
   X HF 1.0
   X BNL 1.0
   C LYP 1.0
$end

$rem
   EXCHANGE GENERAL
   CORRELATION none
   SEPARATE_JK TRUE
   OMEGA 300 
   DERSCREEN FALSE
   IDERIV 0
   UNRESTRICTED TRUE
   JOBTYPE sp
   BASIS 6-31G*
   SCF_PRINT 1
   PDB_PRINT 2
   INCDFT false
   VARTHRESH 0
   MAX_SCF_CYCLES 1000
   MEM_STATIC 256
   MEM_TOTAL 3000
   THRESH 140
   ITHRSH 14
   XC_GRID 75000302
   SCF_CONVERGENCE 6
$end

@@@
 
$molecule
0,1
C 2.1773519773 0. 0.    
C -0.1612071544 0.7066826427 0.2856983838    
C -0.1612071544 -0.7066826427 -0.2856983838    
C 1.2464885101 1.2430373919 0.0174089356    
C 1.2464885101 -1.2430373919 -0.0174089356    
Br -0.5048899915 0.5566653338 2.2553944501    
Br -0.5048899915 -0.5566653338 -2.2553944501    
H 2.8262936787 -0.0222200635 0.8778347352    
H 2.8262936787 0.0222200635 -0.8778347352    
H 1.5436479125 1.9989218739 0.7445539883    
H 1.5436479125 -1.9989218739 -0.7445539883    
H 1.2316064346 1.7244746751 -0.9657731047    
H 1.2316064346 -1.7244746751 0.9657731047    
H -0.9741423885 1.3356478982 -0.0641840953    
H -0.9741423885 -1.3356478982 0.0641840953    
       
$end

$comment
neutral
$end

$xc_functional
   X HF 1.0
   X BNL 1.0
   C LYP 1.0
$end

$rem
   EXCHANGE GENERAL
   CORRELATION none
   SEPARATE_JK TRUE
   OMEGA 300 
   DERSCREEN FALSE
   IDERIV 0
   UNRESTRICTED TRUE
   JOBTYPE sp
   BASIS 6-31G*
   SCF_PRINT 1
   PDB_PRINT 2
   INCDFT false
   VARTHRESH 0
   MAX_SCF_CYCLES 1000
   MEM_STATIC 256
   MEM_TOTAL 3000
   THRESH 140
   ITHRSH 14
   XC_GRID 75000302
   SCF_CONVERGENCE 6
$end

@@@
 
$molecule
1,2
C 2.1773519773 0. 0.    
C -0.1612071544 0.7066826427 0.2856983838    
C -0.1612071544 -0.7066826427 -0.2856983838    
C 1.2464885101 1.2430373919 0.0174089356    
C 1.2464885101 -1.2430373919 -0.0174089356    
Br -0.5048899915 0.5566653338 2.2553944501    
Br -0.5048899915 -0.5566653338 -2.2553944501    
H 2.8262936787 -0.0222200635 0.8778347352    
H 2.8262936787 0.0222200635 -0.8778347352    
H 1.5436479125 1.9989218739 0.7445539883    
H 1.5436479125 -1.9989218739 -0.7445539883    
H 1.2316064346 1.7244746751 -0.9657731047    
H 1.2316064346 -1.7244746751 0.9657731047    
H -0.9741423885 1.3356478982 -0.0641840953    
H -0.9741423885 -1.3356478982 0.0641840953    
       
$end

$comment
positive
$end

$xc_functional
   X HF 1.0
   X BNL 1.0
   C LYP 1.0
$end

$rem
   EXCHANGE GENERAL  ! bnl
   CORRELATION none  ! bnl
   SEPARATE_JK TRUE  ! bnl
   OMEGA 300      ! bnl
   DERSCREEN FALSE   ! bnl
   IDERIV 0          ! bnl
   UNRESTRICTED TRUE ! bnl
   JOBTYPE sp
   BASIS 6-31G*
   SCF_PRINT 1
   PDB_PRINT 2
   INCDFT false
   VARTHRESH 0
   MAX_SCF_CYCLES 1000
   MEM_STATIC 256
   MEM_TOTAL 3000
   THRESH 140
   ITHRSH 14
   XC_GRID 75000302
   SCF_CONVERGENCE 6
$end

