 
$molecule
-1,2
As 0. 0. 0.0708023734    
H 1.264515994 0. -0.7788261077    
H -0.632257997 -1.0951029743 -0.7788261077    
H -0.632257997 1.0951029743 -0.7788261077    
       
       
$end

$comment
negative
$end

$xc_functional
   X HF 1.0
   X BNL 1.0
   C LYP 1.0
$end

$rem
   EXCHANGE GENERAL
   CORRELATION none
   SEPARATE_JK TRUE
   OMEGA 600 
   DERSCREEN FALSE
   IDERIV 0
   UNRESTRICTED TRUE
   JOBTYPE sp
   BASIS 6-31G*
   SCF_PRINT 1
   PDB_PRINT 2
   INCDFT false
   VARTHRESH 0
   MAX_SCF_CYCLES 1000
   MEM_STATIC 256
   MEM_TOTAL 3000
   THRESH 140
   ITHRSH 14
   XC_GRID 75000302
   SCF_CONVERGENCE 6
$end

@@@
 
$molecule
0,1
As 0. 0. 0.0708023734    
H 1.264515994 0. -0.7788261077    
H -0.632257997 -1.0951029743 -0.7788261077    
H -0.632257997 1.0951029743 -0.7788261077    
       
       
$end

$comment
neutral
$end

$xc_functional
   X HF 1.0
   X BNL 1.0
   C LYP 1.0
$end

$rem
   EXCHANGE GENERAL
   CORRELATION none
   SEPARATE_JK TRUE
   OMEGA 600 
   DERSCREEN FALSE
   IDERIV 0
   UNRESTRICTED TRUE
   JOBTYPE sp
   BASIS 6-31G*
   SCF_PRINT 1
   PDB_PRINT 2
   INCDFT false
   VARTHRESH 0
   MAX_SCF_CYCLES 1000
   MEM_STATIC 256
   MEM_TOTAL 3000
   THRESH 140
   ITHRSH 14
   XC_GRID 75000302
   SCF_CONVERGENCE 6
$end

@@@
 
$molecule
1,2
As 0. 0. 0.0708023734    
H 1.264515994 0. -0.7788261077    
H -0.632257997 -1.0951029743 -0.7788261077    
H -0.632257997 1.0951029743 -0.7788261077    
       
       
$end

$comment
positive
$end

$xc_functional
   X HF 1.0
   X BNL 1.0
   C LYP 1.0
$end

$rem
   EXCHANGE GENERAL  ! bnl
   CORRELATION none  ! bnl
   SEPARATE_JK TRUE  ! bnl
   OMEGA 600      ! bnl
   DERSCREEN FALSE   ! bnl
   IDERIV 0          ! bnl
   UNRESTRICTED TRUE ! bnl
   JOBTYPE sp
   BASIS 6-31G*
   SCF_PRINT 1
   PDB_PRINT 2
   INCDFT false
   VARTHRESH 0
   MAX_SCF_CYCLES 1000
   MEM_STATIC 256
   MEM_TOTAL 3000
   THRESH 140
   ITHRSH 14
   XC_GRID 75000302
   SCF_CONVERGENCE 6
$end

