 
$molecule
-1,2
Br -0.2888804975 -0.500355699 -0.8404811302    
C 0.1070915984 0.1854880895 0.9961292642    
C 1.6134051774 0.2458746738 1.1912690185    
C -0.5937688751 1.5201872071 1.1912690184    
H -0.202064687 2.2741224528 0.5027047463    
H -1.6711624284 1.4350612316 1.0357771539    
H -0.4192193202 1.8698248646 2.2165226067    
H 2.070480159 0.9620680743 0.5027047464    
H 2.0783806967 -0.729738501 1.035777154    
H 1.8289254934 0.5718578513 2.2165226067    
H -0.3348899062 -0.5800463323 1.6348267358    
       
$end

$comment
negative
$end

$xc_functional
   X HF 1.0
   X BNL 1.0
   C LYP 1.0
$end

$rem
   EXCHANGE GENERAL
   CORRELATION none
   SEPARATE_JK TRUE
   OMEGA 800 
   DERSCREEN FALSE
   IDERIV 0
   UNRESTRICTED TRUE
   JOBTYPE sp
   BASIS 6-31G*
   SCF_PRINT 1
   PDB_PRINT 2
   INCDFT false
   VARTHRESH 0
   MAX_SCF_CYCLES 1000
   MEM_STATIC 256
   MEM_TOTAL 3000
   THRESH 140
   ITHRSH 14
   XC_GRID 75000302
   SCF_CONVERGENCE 6
$end

@@@
 
$molecule
0,1
Br -0.2888804975 -0.500355699 -0.8404811302    
C 0.1070915984 0.1854880895 0.9961292642    
C 1.6134051774 0.2458746738 1.1912690185    
C -0.5937688751 1.5201872071 1.1912690184    
H -0.202064687 2.2741224528 0.5027047463    
H -1.6711624284 1.4350612316 1.0357771539    
H -0.4192193202 1.8698248646 2.2165226067    
H 2.070480159 0.9620680743 0.5027047464    
H 2.0783806967 -0.729738501 1.035777154    
H 1.8289254934 0.5718578513 2.2165226067    
H -0.3348899062 -0.5800463323 1.6348267358    
       
$end

$comment
neutral
$end

$xc_functional
   X HF 1.0
   X BNL 1.0
   C LYP 1.0
$end

$rem
   EXCHANGE GENERAL
   CORRELATION none
   SEPARATE_JK TRUE
   OMEGA 800 
   DERSCREEN FALSE
   IDERIV 0
   UNRESTRICTED TRUE
   JOBTYPE sp
   BASIS 6-31G*
   SCF_PRINT 1
   PDB_PRINT 2
   INCDFT false
   VARTHRESH 0
   MAX_SCF_CYCLES 1000
   MEM_STATIC 256
   MEM_TOTAL 3000
   THRESH 140
   ITHRSH 14
   XC_GRID 75000302
   SCF_CONVERGENCE 6
$end

@@@
 
$molecule
1,2
Br -0.2888804975 -0.500355699 -0.8404811302    
C 0.1070915984 0.1854880895 0.9961292642    
C 1.6134051774 0.2458746738 1.1912690185    
C -0.5937688751 1.5201872071 1.1912690184    
H -0.202064687 2.2741224528 0.5027047463    
H -1.6711624284 1.4350612316 1.0357771539    
H -0.4192193202 1.8698248646 2.2165226067    
H 2.070480159 0.9620680743 0.5027047464    
H 2.0783806967 -0.729738501 1.035777154    
H 1.8289254934 0.5718578513 2.2165226067    
H -0.3348899062 -0.5800463323 1.6348267358    
       
$end

$comment
positive
$end

$xc_functional
   X HF 1.0
   X BNL 1.0
   C LYP 1.0
$end

$rem
   EXCHANGE GENERAL  ! bnl
   CORRELATION none  ! bnl
   SEPARATE_JK TRUE  ! bnl
   OMEGA 800      ! bnl
   DERSCREEN FALSE   ! bnl
   IDERIV 0          ! bnl
   UNRESTRICTED TRUE ! bnl
   JOBTYPE sp
   BASIS 6-31G*
   SCF_PRINT 1
   PDB_PRINT 2
   INCDFT false
   VARTHRESH 0
   MAX_SCF_CYCLES 1000
   MEM_STATIC 256
   MEM_TOTAL 3000
   THRESH 140
   ITHRSH 14
   XC_GRID 75000302
   SCF_CONVERGENCE 6
$end

