 
$molecule
-1,2
C -0.1118375995 0. -1.3964678698    
C -0.1079768018 0. 0.1232434534    
C 1.3229285411 0. 0.683214402    
C 1.3597261714 0. 2.2159627946    
C 2.7805005114 0. 2.7901714834    
C 2.8094981753 0. 4.3209710036    
Br -1.9481948524 0. -2.1299030591    
H 3.8357904454 0. 4.7011060612    
H 2.304227417 0.8835516734 4.7267230145    
H 2.304227417 -0.8835516734 4.7267230145    
H 0.3603640339 0.8891845495 -1.8143414551    
H 0.3603640339 -0.8891845495 -1.8143414551    
H -0.650777852 -0.8790308851 0.4883393503    
H -0.650777852 0.8790308851 0.4883393503    
H 1.8647024296 0.8781480735 0.3060450687    
H 1.8647024296 -0.8781480735 0.3060450687    
H 0.8153924257 -0.8772836678 2.5918351022    
H 0.8153924257 0.8772836678 2.5918351022    
H 3.3230892461 0.8769380314 2.4128636219    
H 3.3230892461 -0.8769380314 2.4128636219    
       
$end

$comment
negative
$end

$xc_functional
   X HF 1.0
   X BNL 1.0
   C LYP 1.0
$end

$rem
   EXCHANGE GENERAL
   CORRELATION none
   SEPARATE_JK TRUE
   OMEGA 300 
   DERSCREEN FALSE
   IDERIV 0
   UNRESTRICTED TRUE
   JOBTYPE sp
   BASIS 6-31G*
   SCF_PRINT 1
   PDB_PRINT 2
   INCDFT false
   VARTHRESH 0
   MAX_SCF_CYCLES 1000
   MEM_STATIC 256
   MEM_TOTAL 3000
   THRESH 140
   ITHRSH 14
   XC_GRID 75000302
   SCF_CONVERGENCE 6
$end

@@@
 
$molecule
0,1
C -0.1118375995 0. -1.3964678698    
C -0.1079768018 0. 0.1232434534    
C 1.3229285411 0. 0.683214402    
C 1.3597261714 0. 2.2159627946    
C 2.7805005114 0. 2.7901714834    
C 2.8094981753 0. 4.3209710036    
Br -1.9481948524 0. -2.1299030591    
H 3.8357904454 0. 4.7011060612    
H 2.304227417 0.8835516734 4.7267230145    
H 2.304227417 -0.8835516734 4.7267230145    
H 0.3603640339 0.8891845495 -1.8143414551    
H 0.3603640339 -0.8891845495 -1.8143414551    
H -0.650777852 -0.8790308851 0.4883393503    
H -0.650777852 0.8790308851 0.4883393503    
H 1.8647024296 0.8781480735 0.3060450687    
H 1.8647024296 -0.8781480735 0.3060450687    
H 0.8153924257 -0.8772836678 2.5918351022    
H 0.8153924257 0.8772836678 2.5918351022    
H 3.3230892461 0.8769380314 2.4128636219    
H 3.3230892461 -0.8769380314 2.4128636219    
       
$end

$comment
neutral
$end

$xc_functional
   X HF 1.0
   X BNL 1.0
   C LYP 1.0
$end

$rem
   EXCHANGE GENERAL
   CORRELATION none
   SEPARATE_JK TRUE
   OMEGA 300 
   DERSCREEN FALSE
   IDERIV 0
   UNRESTRICTED TRUE
   JOBTYPE sp
   BASIS 6-31G*
   SCF_PRINT 1
   PDB_PRINT 2
   INCDFT false
   VARTHRESH 0
   MAX_SCF_CYCLES 1000
   MEM_STATIC 256
   MEM_TOTAL 3000
   THRESH 140
   ITHRSH 14
   XC_GRID 75000302
   SCF_CONVERGENCE 6
$end

@@@
 
$molecule
1,2
C -0.1118375995 0. -1.3964678698    
C -0.1079768018 0. 0.1232434534    
C 1.3229285411 0. 0.683214402    
C 1.3597261714 0. 2.2159627946    
C 2.7805005114 0. 2.7901714834    
C 2.8094981753 0. 4.3209710036    
Br -1.9481948524 0. -2.1299030591    
H 3.8357904454 0. 4.7011060612    
H 2.304227417 0.8835516734 4.7267230145    
H 2.304227417 -0.8835516734 4.7267230145    
H 0.3603640339 0.8891845495 -1.8143414551    
H 0.3603640339 -0.8891845495 -1.8143414551    
H -0.650777852 -0.8790308851 0.4883393503    
H -0.650777852 0.8790308851 0.4883393503    
H 1.8647024296 0.8781480735 0.3060450687    
H 1.8647024296 -0.8781480735 0.3060450687    
H 0.8153924257 -0.8772836678 2.5918351022    
H 0.8153924257 0.8772836678 2.5918351022    
H 3.3230892461 0.8769380314 2.4128636219    
H 3.3230892461 -0.8769380314 2.4128636219    
       
$end

$comment
positive
$end

$xc_functional
   X HF 1.0
   X BNL 1.0
   C LYP 1.0
$end

$rem
   EXCHANGE GENERAL  ! bnl
   CORRELATION none  ! bnl
   SEPARATE_JK TRUE  ! bnl
   OMEGA 300      ! bnl
   DERSCREEN FALSE   ! bnl
   IDERIV 0          ! bnl
   UNRESTRICTED TRUE ! bnl
   JOBTYPE sp
   BASIS 6-31G*
   SCF_PRINT 1
   PDB_PRINT 2
   INCDFT false
   VARTHRESH 0
   MAX_SCF_CYCLES 1000
   MEM_STATIC 256
   MEM_TOTAL 3000
   THRESH 140
   ITHRSH 14
   XC_GRID 75000302
   SCF_CONVERGENCE 6
$end

